g3 2 1 0	# problem himmelbi
 100 12 1 0 0	# vars, constraints, objectives, ranges, eqns
 0 1	# nonlinear constraints, objectives
 0 0	# network constraints: nonlinear, linear
 0 65 0	# nonlinear vars in constraints, objectives, both
 0 0 0 1	# linear network variables; functions; arith, flags
 0 0 0 0 0	# discrete variables: binary, integer, nonlinear (b,c,o)
 135 65	# nonzeros in Jacobian, gradients
 0 0	# max name lengths: constraints, variables
 0 0 0 0 0	# common exprs: b,c,o,c1,o1
b
1 1000
1 1000
1 1000
1 1000
1 1000
1 1000
1 1000
1 1000
1 1000
1 1000
1 1000
1 1000
1 1000
1 1000
1 1000
1 1000
1 1000
1 1000
1 1000
1 1000
1 1000
1 1000
1 1000
1 1000
1 1000
1 1000
1 1000
1 1000
1 1000
1 1000
1 1000
1 1000
1 1000
1 1000
1 1000
1 1000
1 1000
1 1000
1 1000
1 1000
1 1000
1 1000
1 1000
1 1000
1 1000
1 1000
1 1000
1 1000
1 1000
1 1000
1 1000
1 1000
1 1000
1 1000
1 1000
1 1000
1 1000
1 1000
1 1000
1 1000
1 1000
1 1000
1 1000
1 1000
1 1000
1 1000
1 1000
1 1000
1 1000
1 1000
1 1000
1 1000
1 1000
1 1000
1 1000
1 1000
1 1000
1 1000
1 1000
1 1000
1 1000
1 1000
1 1000
1 1000
1 1000
1 1000
1 1000
1 1000
1 1000
1 1000
1 1000
1 1000
1 1000
1 1000
1 1000
1 1000
1 1000
1 1000
1 1000
1 1000
r
2 30
2 100
2 40
2 50
2 70
2 35
2 10
1 200
1 100
1 300
1 150
1 250
C0
n0
C1
n0
C2
n0
C3
n0
C4
n0
C5
n0
C6
n0
C7
n0
C8
n0
C9
n0
C10
n0
C11
n0
O0 0
o54
21
o2
n60
o2
o2
o5
n0.84
v6
o5
n0.96
v24
o5
n0.92
v51
o2
n50
o2
o2
o2
o5
n0.95
v0
o5
n0.83
v7
o5
n0.95
v25
o5
n0.94
v52
o2
n50
o2
o2
o5
n0.85
v8
o5
n0.95
v26
o5
n0.92
v53
o2
n75
o2
o2
o5
n0.84
v9
o5
n0.96
v27
o5
n0.95
v54
o2
n40
o2
o2
o5
n0.85
v10
o5
n0.96
v28
o5
n0.95
v55
o2
n60
o2
o2
o2
o5
n0.85
v1
o5
n0.81
v11
o5
n0.9
v29
o5
n0.98
v56
o2
n35
o2
o2
o2
o5
n0.9
v2
o5
n0.81
v12
o5
n0.92
v30
o5
n0.98
v57
o2
n30
o2
o2
o5
n0.85
v3
o5
n0.82
v13
o5
n0.91
v31
o2
n25
o2
o2
o5
n0.8
v4
o5
n0.8
v14
o5
n0.92
v32
o2
n150
o2
o2
o2
o5
n0.86
v15
o5
n0.95
v33
o5
n0.96
v44
o5
n0.9
v58
o2
n30
o2
o2
o5
n0.99
v34
o5
n0.91
v45
o5
n0.95
v59
o2
n45
o2
o2
o2
o5
n0.98
v16
o5
n0.98
v35
o5
n0.92
v46
o5
n0.96
v60
o2
n125
o2
o2
o5
n0.99
v36
o5
n0.91
v47
o5
n0.91
v61
o2
n200
o2
o2
o2
o5
n0.88
v17
o5
n0.98
v37
o5
n0.92
v48
o5
n0.98
v62
o2
n200
o2
o2
o2
o5
n0.87
v18
o5
n0.97
v38
o5
n0.98
v49
o5
n0.99
v63
o2
n130
o2
o2
o2
o5
n0.88
v19
o5
n0.98
v39
o5
n0.93
v50
o5
n0.99
v64
o2
n100
o2
o5
n0.85
v20
o5
n0.95
v40
o2
n100
o2
o2
o5
n0.95
v5
o5
n0.84
v21
o5
n0.92
v41
o2
n100
o2
o5
n0.85
v22
o5
n0.93
v42
o2
n150
o2
o5
n0.85
v23
o5
n0.92
v43
n-1755
k99
1
3
4
5
6
7
9
10
11
12
13
15
16
17
18
20
21
23
25
27
28
29
30
32
34
35
36
37
38
40
41
42
43
45
46
47
48
50
52
54
55
56
57
59
61
62
63
64
66
68
70
72
73
74
75
76
78
79
81
82
83
84
86
88
90
92
93
94
95
97
98
99
100
102
104
106
107
108
110
111
112
114
115
116
117
118
120
121
122
123
124
125
126
128
129
130
131
132
133
J0 5
6 1
24 1
51 1
65 1
81 1
J1 5
1 1
11 1
29 1
56 1
86 1
J2 5
15 1
33 1
44 1
58 1
69 1
J3 5
17 1
37 1
48 1
62 1
73 1
J4 5
18 1
38 1
49 1
63 1
74 1
J5 5
19 1
39 1
50 1
64 1
75 1
J6 5
23 1
43 1
78 1
93 1
99 1
J7 20
0 1
1 1
2 1
3 1
4 1
5 1
65 1
66 1
67 1
68 1
69 1
70 1
71 1
72 1
73 1
74 1
75 1
76 1
77 1
78 1
J8 20
6 1
7 1
8 1
9 1
10 1
11 1
12 1
13 1
14 1
15 1
16 1
17 1
18 1
19 1
20 1
21 1
22 1
23 1
79 1
80 1
J9 20
24 1
25 1
26 1
27 1
28 1
29 1
30 1
31 1
32 1
33 1
34 1
35 1
36 1
37 1
38 1
39 1
40 1
41 1
42 1
43 1
J10 20
44 1
45 1
46 1
47 1
48 1
49 1
50 1
81 1
82 1
83 1
84 1
85 1
86 1
87 1
88 1
89 1
90 1
91 1
92 1
93 1
J11 20
51 1
52 1
53 1
54 1
55 1
56 1
57 1
58 1
59 1
60 1
61 1
62 1
63 1
64 1
94 1
95 1
96 1
97 1
98 1
99 1
G0 65
0 0
1 0
2 0
3 0
4 0
5 0
6 0
7 0
8 0
9 0
10 0
11 0
12 0
13 0
14 0
15 0
16 0
17 0
18 0
19 0
20 0
21 0
22 0
23 0
24 0
25 0
26 0
27 0
28 0
29 0
30 0
31 0
32 0
33 0
34 0
35 0
36 0
37 0
38 0
39 0
40 0
41 0
42 0
43 0
44 0
45 0
46 0
47 0
48 0
49 0
50 0
51 0
52 0
53 0
54 0
55 0
56 0
57 0
58 0
59 0
60 0
61 0
62 0
63 0
64 0
